experiments/sat_smt/run/sat-r+/results/unused_1.res
solved=true
solvingTime=2.0685176849365234375
nActions=6