experiments/sat_smt/run/sat-r+/results/unused_1.out
Timesteps: 1
s UNSATISFIABLE
real 0.17
user 0.01
sys 0.00
Timesteps: 2
s UNSATISFIABLE
real 0.14
user 0.03
sys 0.00
Timesteps: 3
s UNSATISFIABLE
real 0.18
user 0.07
sys 0.00
Timesteps: 4
s UNSATISFIABLE
real 0.27
user 0.15
sys 0.00
Timesteps: 5
s UNSATISFIABLE
real 0.39
user 0.29
sys 0.00
Timesteps: 6
s SATISFIABLE
real 0.76
user 0.51
sys 0.01
